2
18
19
20 20
9  7  1 63
6  9  1 54
9  4  1 36
1  7  1 7
1  9  1 9
4  2  1 8
2  9  1 18
8  5  1 40
3  10 1 30
5  2  1 10
3  7  1 21
5  5  1 25
3  11 1 33
1  6  1 6
1  2  2 2
1  4  1 4
1  3  1 3
1  13 1 13 


